 vasp.6.3.2 27Jun22 (build May 04 2024 18:40:40) complex

 executed on             LinuxIFC date 2024.09.02  23:40:58

 INCAR:
   SYSTEM = slab_Cel1-OPT
   ISTART = 0
   ICHARG = 2
   LWAVE = .F.
   LAECHG = .F.
   LCHARG = .F.
   LELF = .False.
   ENCUT = 400
   PREC = N
   NELM = 200
   ALGO = N
   ISMEAR = 0
   SIGMA = 0.1
   EDIFF = 1E-5
   IBRION = 2
   POTIM = 0.1
   EDIFFG = -0.05
   ISIF = 3
   NSW = 1000
   LDIPOL = .True.
   IDIPOL = 3
   LREAL = AUTO
   NCORE = 12

 POTCAR:    PAW_PBE C 08Apr2002
 POTCAR:    PAW_PBE N 08Apr2002
 POTCAR:    PAW_PBE Cu 22Jun2005
 POTCAR:    PAW_PBE C 08Apr2002
   VRHFIN =C: s2p2

   TITEL  = PAW_PBE C 08Apr2002
   POMASS =   12.011; ZVAL   =    4.000    mass and valenz
   ENMAX  =  400.000; ENMIN  =  300.000 eV

   TITEL  = PAW_PBE N 08Apr2002
   POMASS =   14.001; ZVAL   =    5.000    mass and valenz
   ENMAX  =  400.000; ENMIN  =  300.000 eV

   TITEL  = PAW_PBE Cu 22Jun2005
   POMASS =   63.546; ZVAL   =   11.000    mass and valenz
   ENMAX  =  295.446; ENMIN  =  221.585 eV

 Optimization of the real space projectors (new method)

 maximal supplied QI-value         = 25.13
 optimisation between [QCUT,QGAM] = [ 10.05, 20.36] = [ 28.30,116.06] Ry
 Optimized for a Real-space Cutoff    1.30 Angstroem

   l    n(q)    QCUT    max X(q) W(low)/X(q) W(high)/X(q)  e(spline)
   0      8    10.053   115.676    0.49E-03    0.72E-03    0.18E-06
   0      8    10.053    87.132    0.49E-03    0.71E-03    0.18E-06
   1      7    10.053     4.429    0.32E-03    0.31E-03    0.18E-06
   1      7    10.053     2.733    0.23E-03    0.19E-03    0.20E-06
 Optimization of the real space projectors (new method)

[...]

   l    n(q)    QCUT    max X(q) W(low)/X(q) W(high)/X(q)  e(spline)
   0     10    10.053    79.467    0.76E-04    0.72E-04    0.56E-06
   0     10    10.053    66.151    0.76E-04    0.72E-04    0.55E-06
   1     10    10.053     8.350    0.25E-03    0.92E-03    0.41E-05
   1     10    10.053     5.531    0.27E-03    0.10E-02    0.45E-05
 Optimization of the real space projectors (new method)

 maximal supplied QI-value         = 16.25
 optimisation between [QCUT,QGAM] = [ 10.24, 20.48] = [ 29.35,117.42] Ry
 Optimized for a Real-space Cutoff    1.55 Angstroem

   l    n(q)    QCUT    max X(q) W(low)/X(q) W(high)/X(q)  e(spline)
   2      9    10.239     4.610    0.85E-04    0.29E-03    0.14E-06
   2      9    10.239     8.522    0.15E-03    0.50E-03    0.27E-06
   0     10    10.239    51.609    0.45E-04    0.99E-04    0.10E-06
   0     10    10.239    27.747    0.40E-04    0.93E-04    0.97E-07
   1      9    10.239    20.408    0.15E-03    0.78E-05    0.15E-06
   1      9    10.239    13.425    0.13E-03    0.71E-05    0.14E-06
  PAW_PBE C 08Apr2002                   :
  PAW_PBE N 08Apr2002                   :
  PAW_PBE Cu 22Jun2005                  :

 POSCAR: C  N  Cu
  positions in cartesian coordinates
 exchange correlation table for  LEXCH =        8
   RHO(1)=    0.500       N(1)  =     2000
   RHO(2)=  100.500       N(2)  =     4000

 VTST: version 4.2, (08/11/21)

 CHAIN: initializing optimizer

 OPT: Using VASP Conjugate-Gradient optimizer
 CHAIN: Read ICHAIN            0

 POSCAR: C  N  Cu
  positions in cartesian coordinates

 ion  position               nearest neighbor table
   1  0.066  0.404  0.133-  25 1.33  27 1.33  31 1.39
   2  0.981  0.234  0.133-  29 1.32  26 1.33  31 1.39
   3  0.226  0.398  0.133-  30 1.33  27 1.33  40 1.48
   4  0.816  0.576  0.134-  44 1.33  45 1.35  32 1.45
   5  0.150  0.234  0.133-  28 1.32  30 1.33  31 1.39
   6  0.905  0.398  0.133-  26 1.33  25 1.33  32 1.47
   7  0.566  0.401  0.133-  35 1.33  33 1.33  39 1.37
   8  0.480  0.233  0.133-  37 1.32  34 1.33  39 1.40
   9  0.727  0.398  0.133-  38 1.33  35 1.35  32 1.45
  10  0.315  0.576  0.134-  53 1.33  52 1.35  40 1.45
  11  0.651  0.233  0.133-  36 1.32  38 1.33  39 1.40
  12  0.404  0.398  0.134-  34 1.33  33 1.35  40 1.45
  13  0.816  0.905  0.133-  43 1.32  41 1.33  47 1.40
  14  0.733  0.736  0.133-  45 1.33  42 1.33  47 1.37
  15  0.977  0.898  0.133-  46 1.34  43 1.34  56 1.46
  16  0.901  0.734  0.133-  46 1.32  44 1.33  47 1.40
  17  0.654  0.899  0.134-  41 1.33  42 1.35  48 1.45
  18  0.315  0.905  0.133-  49 1.32  51 1.33  55 1.40
  19  0.230  0.734  0.133-  50 1.32  53 1.33  55 1.40
  20  0.477  0.899  0.134-  51 1.33  54 1.35  48 1.45
  21  0.398  0.736  0.133-  52 1.33  54 1.33  55 1.37
  22  0.154  0.899  0.133-  50 1.34  49 1.34  56 1.46
  23  0.065  0.077  0.133-  29 1.33  28 1.33  56 1.46
  24  0.566  0.076  0.133-  37 1.34  36 1.34  48 1.46
  25  0.984  0.457  0.133-   1 1.33   6 1.33
  26  0.901  0.290  0.133-   2 1.33   6 1.33
  27  0.147  0.457  0.133-   1 1.33   3 1.33
  28  0.149  0.127  0.133-   5 1.32  23 1.33
  29  0.982  0.127  0.133-   2 1.32  23 1.33
  30  0.231  0.290  0.133-   5 1.33   3 1.33
  31  0.066  0.291  0.133-   1 1.39   5 1.39   2 1.39
  32  0.815  0.458  0.133-   4 1.45   9 1.45   6 1.47
  33  0.485  0.456  0.134-   7 1.33  12 1.35
  34  0.401  0.290  0.134-   8 1.33  12 1.33
  35  0.646  0.456  0.134-   7 1.33   9 1.35
  36  0.649  0.126  0.133-  11 1.32  24 1.34
  37  0.482  0.126  0.133-   8 1.32  24 1.34
  38  0.730  0.290  0.134-  11 1.33   9 1.33
  39  0.566  0.290  0.133-   7 1.37   8 1.40  11 1.40
  40  0.316  0.458  0.133-  10 1.45  12 1.45   3 1.48
  41  0.734  0.956  0.134-  13 1.33  17 1.33
  42  0.652  0.789  0.134-  14 1.33  17 1.35
  43  0.897  0.957  0.133-  13 1.32  15 1.34
  44  0.898  0.627  0.134-  16 1.33   4 1.33
  45  0.732  0.628  0.134-  14 1.33   4 1.35
  46  0.981  0.790  0.133-  16 1.32  15 1.34
  47  0.816  0.792  0.133-  14 1.37  13 1.40  16 1.40
  48  0.565  0.957  0.133-  20 1.45  17 1.45  24 1.46
  49  0.234  0.957  0.133-  18 1.32  22 1.34
  50  0.150  0.790  0.133-  19 1.32  22 1.34
  51  0.397  0.956  0.134-  18 1.33  20 1.33
  52  0.399  0.629  0.134-  21 1.33  10 1.35
  53  0.233  0.627  0.134-  19 1.33  10 1.33
  54  0.479  0.789  0.134-  21 1.33  20 1.35
  55  0.314  0.792  0.133-  21 1.37  18 1.40  19 1.40
  56  0.065  0.958  0.133-  22 1.46  15 1.46  23 1.46
  57  0.564  0.624  0.137-

  LATTYP: Found a simple orthorhombic cell.
 ALAT       =    12.3019443187
 B/A-ratio  =     1.1547820380
 C/A-ratio  =     1.2193194516

  Lattice vectors:

 A1 = (   0.0000000000, -12.3019443187,   0.0000000000)
 A2 = (  14.2060643322,   0.0000000000,   0.0000000000)
 A3 = (   0.0000000000,   0.0000000000,  15.0000000000)

Analysis of symmetry for initial positions (statically):
 Subroutine PRICEL returns:
 Original cell was already a primitive cell.

 Routine SETGRP: Setting up the symmetry group for a
 simple orthorhombic supercell.

 Subroutine GETGRP returns: Found  1 space group operations
 (whereof  1 operations were pure point group operations)
 out of a pool of  8 trial point group operations.

The static configuration has the point symmetry C_1 .

Analysis of symmetry for dynamics (positions and initial velocities):
 Subroutine PRICEL returns:
 Original cell was already a primitive cell.

 Routine SETGRP: Setting up the symmetry group for a
 simple orthorhombic supercell.

 Subroutine GETGRP returns: Found  1 space group operations
 (whereof  1 operations were pure point group operations)
 out of a pool of  8 trial point group operations.

The dynamic configuration has the point symmetry C_1 .

 Subroutine INISYM returns: Found  1 space group operations
 (whereof  1 operations are pure point group operations),
 and found     1 'primitive' translations

                                     Primitive cell

  volume of cell :    2621.4332

  direct lattice vectors                    reciprocal lattice vectors
    14.206064332  0.000000000  0.000000000     0.070392473  0.000000000  0.000000000
     0.000000000 12.301944319  0.000000000     0.000000000  0.081287963  0.000000000
     0.000000000  0.000000000 15.000000000     0.000000000  0.000000000  0.066666667

  length of vectors
    14.206064332 12.301944319 15.000000000     0.070392473  0.081287963  0.066666667

  position of ions in fractional coordinates (direct lattice)
     0.065529235  0.404282237  0.133328831
     0.980735063  0.234486534  0.133312505
     0.225968488  0.398007423  0.133326927
     0.815677134  0.575981502  0.133532706
     0.150327391  0.234489072  0.133307555
     0.905105668  0.398012154  0.133328883
     0.565636000  0.400604596  0.133292902
     0.480032749  0.233399150  0.133191182
     0.726999594  0.398166055  0.133491426
     0.315303449  0.576044428  0.133527046
     0.651138453  0.233328856  0.133187340
     0.404179461  0.398309286  0.133528911
     0.815931831  0.905241227  0.133221785
     0.733126834  0.736133884  0.133367616
     0.976534045  0.898492509  0.133309971
     0.901300943  0.734284177  0.133173972
     0.654360767  0.898693939  0.133519079
     0.314963862  0.905446831  0.133200544
     0.229581881  0.734364644  0.133160120
     0.476521177  0.898895762  0.133500490
     0.397654077  0.736413117  0.133290114
     0.154351035  0.898550683  0.133325631
     0.065476293  0.076898475  0.133313670
     0.565525173  0.076362738  0.133314068
     0.983860967  0.456732302  0.133316568
     0.900513234  0.290052123  0.133280115
     0.147218914  0.456730850  0.133304340
     0.148799782  0.126829434  0.133286961
     0.982170530  0.126819644  0.133295271
     0.230593732  0.290044664  0.133283595
     0.065531261  0.291231028  0.133349583
     0.815214505  0.457923502  0.133370479
     0.485379059  0.455962223  0.133727606
     0.400765775  0.290455134  0.133597090
     0.645890395  0.455834349  0.133688615
     0.649158742  0.126118557  0.133419558
     0.481927033  0.126180434  0.133408328
     0.730446883  0.290290815  0.133578592
     0.565590134  0.289633462  0.132592387
     0.315901674  0.458006144  0.133387856
     0.733551173  0.956139981  0.133617287
     0.651569445  0.788863889  0.133722144
     0.897217997  0.957091439  0.133441068
     0.898348406  0.626533913  0.133512795
     0.731943047  0.628297315  0.133848471
     0.980717750  0.789927915  0.133385637
     0.816444021  0.791705291  0.132653305
     0.565463827  0.957298147  0.133351265
     0.233655124  0.957193320  0.133468823
     0.150161843  0.789980794  0.133438657
     0.397333924  0.956353629  0.133639266
     0.399002064  0.628553289  0.133811538
     0.232638641  0.626608723  0.133556841
     0.479195328  0.789086106  0.133666598
     0.314416586  0.791891828  0.132532095
     0.065443803  0.957877428  0.133311231
     0.564130240  0.624365632  0.137312762

  ion indices of the primitive-cell ions
   primitive index   ion index
                 1           1
                 2           2
                 3           3
                 4           4
                 5           5
                 6           6
                 7           7
                 8           8
                 9           9
                10          10
                11          11
                12          12
                13          13
                14          14
                15          15
                16          16
                17          17
                18          18
                19          19
[...]
     25     -20.8435      2.00000
     26     -20.7859      2.00000
     27     -20.7662      2.00000
     28     -20.7287      2.00000
     29     -20.0248      2.00000
     30     -20.0029      2.00000
     31     -19.9931      2.00000
     32     -19.8838      2.00000
     33     -17.0748      2.00000
     34     -17.0734      2.00000
     35     -17.0265      2.00000
     36     -16.9897      2.00000
     37     -16.8282      2.00000
     38     -16.8033      2.00000
     39     -16.7725      2.00000
     40     -16.7320      2.00000
     41     -15.5416      2.00000
     42     -15.5105      2.00000
     43     -15.4931      2.00000
     44     -15.4874      2.00000
     45     -14.0673      2.00000
     46     -14.0373      2.00000
     47     -14.0229      2.00000
     48     -13.9650      2.00000
     49     -13.9611      2.00000
     50     -13.8244      2.00000
     51     -13.8213      2.00000
     52     -13.7533      2.00000
     53     -13.4557      2.00000
     54     -13.4446      2.00000
     55     -13.3032      2.00000
     56     -13.2964      2.00000
     57     -12.9506      2.00000
     58     -12.8098      2.00000
     59     -12.7979      2.00000
     60     -12.7537      2.00000
[...]
    150       1.2613      0.00000
    151       1.4382      0.00000
    152       1.8794      0.00000
    153       1.9385      0.00000
    154       1.9668      0.00000
    155       1.9831      0.00000
    156       2.0386      0.00000
    157       2.0601      0.00000
    158       2.1037      0.00000
    159       2.3737      0.00000
    160       2.3912      0.00000
    161       2.4176      0.00000
    162       2.4342      0.00000
    163       2.4496      0.00000
    164       2.5785      0.00000

 soft charge-density along one line, spin component           1
         0         1         2         3         4         5         6         7         8         9
 total charge-density along one line

------------------------ aborting loop because EDIFF is reached ----------------------------------------

  FORCE on cell =-STRESS in cart. coord.  units (eV):
  Direction    XX          YY          ZZ          XY          YZ          ZX
  Alpha Z   127.20778   127.20778   127.20778
  Ewald   37063.41879 37103.58374-46127.46714    -3.16945     0.57861     0.02696
  Hartree 37517.33862 37545.28293-35504.57579    -1.82825     0.29948     0.13640
  E(xc)   -1107.19677 -1107.14271 -1142.28997    -0.00043     0.00166    -0.00090
  Local  -77744.31953-77810.25151 77868.33112     4.87566    -0.85786    -0.17666
  n-local  -536.32378  -536.44995  -501.82403    -0.05012    -0.00877     0.01056
  augment   114.96894   114.95621   117.08497    -0.00074    -0.00980     0.00171
  Kinetic  4563.35186  4561.23768  5143.09989    -0.00718    -0.00507     0.00771
  Fock        0.00000     0.00000     0.00000     0.00000     0.00000     0.00000
  Total      -1.55409    -1.57583   -20.43317    -0.18052    -0.00176     0.00579
  in kB      -0.94984    -0.96312   -12.48842    -0.11033    -0.00108     0.00354

 VOLUME and BASIS-vectors are now :
  energy-cutoff  :      400.00
  volume of cell :     2621.43
      direct lattice vectors                 reciprocal lattice vectors
    14.206064332  0.000000000  0.000000000     0.070392473  0.000000000  0.000000000
     0.000000000 12.301944319  0.000000000     0.000000000  0.081287963  0.000000000
     0.000000000  0.000000000 15.000000000     0.000000000  0.000000000  0.066666667

  length of vectors
    14.206064332 12.301944319 15.000000000     0.070392473  0.081287963  0.066666667

 FORCES acting on ions
    electron-ion (+dipol)            ewald-force                    non-local-force                 convergence-correction
   -.257E-01 -.650E+02 0.156E+00   0.245E-01 0.677E+02 -.163E+00   0.531E-02 -.274E+01 0.603E-02   -.790E-04 0.225E-02 -.333E-03
   0.554E+02 0.355E+02 0.174E+00   -.577E+02 -.369E+02 -.182E+00   0.234E+01 0.145E+01 0.706E-02   -.222E-02 -.554E-03 -.301E-03
   -.251E+02 -.149E+02 0.413E+00   0.218E+02 0.130E+02 -.408E+00   0.329E+01 0.191E+01 -.396E-02   0.255E-02 0.125E-02 -.204E-03
   -.366E+02 0.462E+02 0.375E+00   0.370E+02 -.431E+02 -.421E+00   -.422E+00 -.310E+01 0.529E-01   -.101E-01 0.188E-02 0.480E-03
   -.556E+02 0.354E+02 0.211E+00   0.579E+02 -.368E+02 -.219E+00   -.234E+01 0.144E+01 0.662E-02   0.215E-02 -.536E-03 -.318E-03
   0.250E+02 -.150E+02 0.376E+00   -.217E+02 0.131E+02 -.370E+00   -.328E+01 0.190E+01 -.431E-02   -.250E-02 0.126E-02 -.189E-03
   -.266E+00 0.101E+02 0.261E+01   0.284E+00 -.782E+01 -.255E+01   -.132E-01 -.225E+01 -.642E-01   -.285E-03 0.182E-01 0.520E-03
   0.669E+02 0.470E+02 0.127E+01   -.692E+02 -.485E+02 -.122E+01   0.224E+01 0.152E+01 -.492E-01   -.112E-02 0.217E-02 -.751E-04
   -.593E+02 0.710E+01 0.565E+00   0.568E+02 -.901E+01 -.616E+00   0.247E+01 0.188E+01 0.553E-01   -.667E-02 0.739E-02 0.571E-03
   0.374E+02 0.465E+02 0.441E+00   -.378E+02 -.434E+02 -.494E+00   0.450E+00 -.307E+01 0.593E-01   0.103E-01 0.189E-02 0.519E-03
   -.669E+02 0.470E+02 0.127E+01   0.692E+02 -.485E+02 -.123E+01   -.225E+01 0.151E+01 -.480E-01   0.113E-02 0.207E-02 -.853E-04
   0.594E+02 0.742E+01 0.387E+00   -.569E+02 -.932E+01 -.439E+00   -.246E+01 0.189E+01 0.559E-01   0.691E-02 0.765E-02 0.619E-03
   -.135E+02 -.815E+02 0.114E+01   0.137E+02 0.842E+02 -.109E+01   -.246E+00 -.274E+01 -.452E-01   -.326E-02 -.245E-03 -.343E-04
   -.101E+02 -.493E+01 0.229E+01   0.818E+01 0.379E+01 -.222E+01   0.193E+01 0.113E+01 -.617E-01   -.158E-01 -.883E-02 0.433E-03
   -.393E+02 -.240E+02 0.424E+00   0.363E+02 0.223E+02 -.451E+00   0.293E+01 0.169E+01 0.295E-01   -.562E-03 -.471E-03 -.256E-03
   -.772E+02 0.307E+02 0.130E+01   0.797E+02 -.319E+02 -.125E+01   -.247E+01 0.120E+01 -.525E-01   -.189E-02 -.224E-02 -.920E-04
   0.207E+02 -.525E+02 0.483E+00   -.178E+02 0.513E+02 -.532E+00   -.294E+01 0.120E+01 0.536E-01   -.374E-02 -.932E-02 0.610E-03
   0.136E+02 -.818E+02 0.121E+01   -.138E+02 0.846E+02 -.116E+01   0.237E+00 -.275E+01 -.542E-01   0.343E-02 -.233E-03 -.424E-04
   0.776E+02 0.308E+02 0.139E+01   -.801E+02 -.320E+02 -.133E+01   0.247E+01 0.120E+01 -.600E-01   0.198E-02 -.229E-02 -.100E-03
   -.210E+02 -.531E+02 0.546E+00   0.181E+02 0.519E+02 -.600E+00   0.293E+01 0.117E+01 0.583E-01   0.368E-02 -.935E-02 0.604E-03
   0.115E+02 -.594E+01 0.267E+01   -.954E+01 0.483E+01 -.260E+01   -.192E+01 0.110E+01 -.681E-01   0.161E-01 -.914E-02 0.510E-03
   0.394E+02 -.239E+02 0.389E+00   -.364E+02 0.223E+02 -.423E+00   -.292E+01 0.168E+01 0.363E-01   0.521E-03 -.451E-03 -.252E-03
   0.183E-01 0.398E+02 0.111E+00   -.192E-01 -.364E+02 -.108E+00   0.147E-02 -.348E+01 -.481E-02   -.465E-04 -.433E-03 -.306E-03
   -.133E+00 0.334E+02 0.774E+00   0.140E+00 -.297E+02 -.802E+00   -.617E-02 -.369E+01 0.317E-01   0.807E-04 -.196E-02 -.135E-03
   -.350E+02 -.181E+03 0.474E+00   0.350E+02 0.219E+03 -.485E+00   0.740E-01 -.377E+02 0.916E-02   -.847E-03 0.373E-02 -.466E-03
   0.137E+03 0.123E+03 0.728E+00   -.170E+03 -.142E+03 -.756E+00   0.326E+02 0.189E+02 0.242E-01   -.408E-02 -.884E-03 -.433E-03
   0.352E+02 -.181E+03 0.587E+00   -.352E+02 0.219E+03 -.602E+00   -.580E-01 -.377E+02 0.135E-01   0.794E-03 0.375E-02 -.457E-03
   -.169E+03 0.701E+02 0.443E+00   0.202E+03 -.892E+02 -.462E+00   -.325E+02 0.191E+02 0.149E-01   0.332E-02 -.896E-03 -.563E-03
   0.170E+03 0.702E+02 0.376E+00   -.202E+03 -.893E+02 -.390E+00   0.326E+02 0.191E+02 0.110E-01   -.344E-02 -.885E-03 -.512E-03
   -.137E+03 0.123E+03 0.709E+00   0.170E+03 -.142E+03 -.731E+00   -.326E+02 0.189E+02 0.191E-01   0.406E-02 -.836E-03 -.482E-03
   -.134E-01 0.340E+01 -.912E-01   0.113E-01 -.346E+01 0.113E+00   0.261E-02 0.624E-01 -.149E-01   -.579E-04 0.640E-03 -.499E-03
   -.362E+02 0.199E+02 0.118E+01   0.372E+02 -.205E+02 -.126E+01   -.104E+01 0.567E+00 0.875E-01   -.733E-02 0.401E-02 0.369E-03
   0.451E+02 -.713E+02 0.799E+00   -.456E+02 0.104E+03 -.692E+00   0.437E+00 -.330E+02 -.107E+00   0.113E-01 0.243E-01 0.270E-02
   0.163E+03 0.136E+03 -.137E+01   -.195E+03 -.155E+03 0.155E+01   0.323E+02 0.186E+02 -.179E+00   0.432E-04 0.226E-02 -.506E-03
   -.454E+02 -.743E+02 0.100E+01   0.459E+02 0.108E+03 -.899E+00   -.458E+00 -.332E+02 -.105E+00   -.115E-01 0.237E-01 0.259E-02
   -.179E+03 0.720E+02 -.434E+00   0.211E+03 -.914E+02 0.598E+00   -.322E+02 0.194E+02 -.161E+00   0.283E-02 -.163E-02 -.485E-03
   0.179E+03 0.718E+02 -.331E+00   -.211E+03 -.911E+02 0.487E+00   0.322E+02 0.194E+02 -.153E+00   -.269E-02 -.155E-02 -.493E-03
   -.163E+03 0.136E+03 -.131E+01   0.195E+03 -.154E+03 0.150E+01   -.324E+02 0.187E+02 -.182E+00   0.992E-05 0.206E-02 -.528E-03
   -.156E+00 0.418E+02 0.760E+01   0.162E+00 -.444E+02 -.800E+01   -.899E-02 0.257E+01 0.387E+00   -.605E-05 0.765E-02 -.382E-03
   0.367E+02 0.207E+02 0.110E+01   -.377E+02 -.213E+02 -.118E+01   0.106E+01 0.621E+00 0.842E-01   0.767E-02 0.421E-02 0.365E-03
   -.428E+02 -.205E+03 -.145E+01   0.428E+02 0.242E+03 0.164E+01   -.131E-01 -.374E+02 -.185E+00   -.288E-02 -.755E-03 -.543E-03
   0.835E+02 0.324E+00 0.899E+00   -.112E+03 -.165E+02 -.813E+00   0.289E+02 0.162E+02 -.844E-01   -.159E-01 -.215E-01 0.273E-02
   0.135E+02 -.193E+03 -.809E+00   -.128E+02 0.231E+03 0.978E+00   -.782E+00 -.376E+02 -.162E+00   -.269E-02 0.214E-02 -.480E-03
   -.200E+03 0.698E+02 -.737E+00   0.232E+03 -.885E+02 0.863E+00   -.323E+02 0.187E+02 -.123E+00   -.224E-02 -.119E-02 -.489E-03
   0.414E+02 0.747E+02 -.220E+00   -.699E+02 -.917E+02 0.394E+00   0.285E+02 0.170E+02 -.170E+00   -.267E-01 -.205E-02 0.212E-02
   -.157E+03 0.109E+03 -.446E+00   0.190E+03 -.127E+03 0.589E+00   -.329E+02 0.181E+02 -.141E+00   0.732E-03 -.301E-02 -.586E-03
   -.401E+02 -.221E+02 0.716E+01   0.422E+02 0.233E+02 -.754E+01   -.214E+01 -.121E+01 0.362E+00   -.741E-02 -.407E-02 -.337E-03
   -.374E+00 -.345E+02 0.141E+01   0.399E+00 0.355E+02 -.149E+01   -.261E-01 -.913E+00 0.908E-01   -.875E-04 -.882E-02 0.359E-03
   -.132E+02 -.193E+03 -.105E+01   0.124E+02 0.231E+03 0.125E+01   0.823E+00 -.376E+02 -.188E+00   0.273E-02 0.202E-02 -.488E-03
   0.158E+03 0.109E+03 -.874E+00   -.191E+03 -.127E+03 0.106E+01   0.329E+02 0.181E+02 -.182E+00   -.674E-03 -.304E-02 -.611E-03
   0.427E+02 -.205E+03 -.172E+01   -.427E+02 0.243E+03 0.195E+01   0.812E-02 -.374E+02 -.220E+00   0.282E-02 -.961E-03 -.585E-03
   -.370E+02 0.748E+02 0.701E-01   0.653E+02 -.917E+02 0.979E-01   -.283E+02 0.168E+02 -.166E+00   0.276E-01 -.205E-02 0.232E-02
   0.200E+03 0.699E+02 -.112E+01   -.233E+03 -.887E+02 0.130E+01   0.323E+02 0.187E+02 -.168E+00   0.234E-02 -.112E-02 -.576E-03
   -.842E+02 -.224E+01 0.124E+01   0.113E+03 -.139E+02 -.117E+01   -.289E+02 0.162E+02 -.802E-01   0.158E-01 -.219E-01 0.280E-02
   0.411E+02 -.227E+02 0.813E+01   -.433E+02 0.239E+02 -.856E+01   0.224E+01 -.127E+01 0.414E+00   0.750E-02 -.414E-02 -.295E-03
   0.273E+00 -.493E+01 0.321E+00   -.289E+00 0.509E+01 -.317E+00   0.162E-01 -.166E+00 -.308E-02   0.132E-06 -.197E-03 -.410E-03
   -.867E+01 0.313E+00 -.422E+02   0.841E+01 -.350E+00 0.419E+02   0.276E+00 0.429E-01 0.247E+00   0.417E-03 0.107E-02 0.586E-02
   -.726E+00 -.607E+00 0.107E+01   -.274E-12 0.324E-12 0.000E+00   0.747E+00 0.552E+00 -.107E+01   0.212E-02 -.401E-05 0.131E-01

 POSITION                                       TOTAL-FORCE (eV/Angst)
      0.93091      4.97346      1.99993         0.003579     -0.001703     -0.001295
     13.93239      2.88464      1.99969         0.011420      0.014171     -0.001551
      3.21012      4.89627      1.99990         0.011107      0.006288      0.000825
     11.58756      7.08569      2.00299         0.017295      0.000714      0.006494
      2.13556      2.88467      1.99961        -0.010471      0.007717     -0.002424
     12.85799      4.89632      1.99993        -0.005689      0.006294      0.000447
      8.03546      4.92822      1.99939         0.004575      0.014542     -0.001971
      6.81938      2.87126      1.99787        -0.003654      0.014507     -0.002558
     10.32780      4.89822      2.00237         0.009649     -0.020032      0.004666
      4.47922      7.08647      2.00291        -0.013859      0.003372      0.006427
      9.25011      2.87040      1.99781        -0.000939      0.017468     -0.002625
      5.74180      4.89998      2.00293        -0.006456     -0.011418      0.004384
     11.59118     11.13623      1.99833        -0.015398     -0.008533      0.000120
     10.41485      9.05588      2.00051        -0.015304     -0.018655      0.000371
     13.87271     11.05320      1.99965        -0.020828      0.009185      0.001811
     12.80394      9.03312      1.99761        -0.010401     -0.004481     -0.003289
      9.29589     11.05568      2.00279        -0.000310     -0.002631      0.004617
      4.47440     11.13876      1.99801         0.008824     -0.011799     -0.000799
      3.26145      9.03411      1.99740         0.010961     -0.006357     -0.002434
      6.76949     11.05817      2.00251        -0.008755      0.002016      0.004712
      5.64910      9.05931      1.99935         0.012513     -0.015644     -0.003175
      2.19272     11.05392      1.99988         0.017211      0.005667      0.002408
      0.93016      0.94600      1.99971         0.000117     -0.012929     -0.001919
      8.03389      0.93941      1.99971         0.000696      0.021185      0.003721
     13.97679      5.61870      1.99975         0.003297     -0.004794     -0.002142
     12.79275      3.56821      1.99920         0.025594      0.012212     -0.004375
      2.09140      5.61868      1.99957        -0.001434     -0.010389     -0.002962
      2.11386      1.56025      1.99930        -0.012454      0.012178     -0.004646
     13.95278      1.56013      1.99943         0.009083      0.014873     -0.003869
      3.27583      3.56811      1.99925        -0.023607      0.006864     -0.004341
      0.93094      3.58271      2.00024         0.000083      0.000499      0.005754
     11.58099      5.63335      2.00056        -0.017214      0.005626      0.007597
      6.89533      5.60922      2.00591        -0.002930      0.005935      0.001364
      5.69330      3.57316      2.00396        -0.009887      0.003841      0.005649
      9.17556      5.60765      2.00533         0.003559      0.001508      0.000116
      9.22199      1.55150      2.00129         0.007237      0.014140      0.001783
      6.84629      1.55226      2.00112        -0.012880      0.023331      0.002302
     10.37678      3.57114      2.00368         0.015466      0.004365      0.006476
      8.03481      3.56305      1.98889        -0.003745      0.007719     -0.014247
      4.48772      5.63437      2.00082         0.026546      0.009817      0.007298
     10.42088     11.76238      2.00426        -0.020885     -0.003030      0.004517
      9.25624      9.70456      2.00583         0.005676     -0.026184      0.004116
     12.74594     11.77409      2.00162        -0.030280      0.007455      0.006760
     12.76200      7.70759      2.00269        -0.000086     -0.001685      0.003163
     10.39803      7.72928      2.00773        -0.009274     -0.015479      0.007168
     13.93214      9.71765      2.00078        -0.001203     -0.002799      0.001551
     11.59846      9.73951      1.98980        -0.005402     -0.003038     -0.015796
      8.03302     11.77663      2.00027        -0.001788     -0.007619      0.006624
      3.31932     11.77534      2.00203         0.019595      0.004571      0.007007
      2.13321      9.71830      2.00158        -0.001459     -0.012985      0.003288
      5.64455     11.76501      2.00459         0.013308      0.003202      0.005700
      5.66825      7.73243      2.00717         0.009688     -0.027590      0.004293
      3.30488      7.70851      2.00335        -0.000562     -0.001818      0.004055
      6.80748      9.70729      2.00500        -0.000608     -0.020991      0.000722
      4.46662      9.74181      1.98798         0.000535     -0.008975     -0.019240
      0.92970     11.78375      1.99967        -0.000180     -0.008218     -0.000580
      8.01407      7.68091      2.05969         0.020326      0.008515     -0.042072
    total drift:                                0.022806     -0.055044      0.014182

  FREE ENERGIE OF THE ION-ELECTRON SYSTEM (eV)
  free  energy   TOTEN  =      -473.85158493 eV

  energy  without entropy=     -473.77828815  energy(sigma->0) =     -473.81493654

 stress matrix after NEB project (eV)
     -1.55409     -0.18052      0.00579
     -0.18052     -1.57583     -0.00176
      0.00579     -0.00176    -20.43317
  FORCES: max atom, RMS     0.047494    0.018513
  FORCE total and by dimension    0.139768    0.042072
  Stress total and by dimension   20.554270   20.433167

 reached required accuracy - stopping structural energy minimisation